Bruniera/ragionamento automatico/progetto/benchmark/asp/mid14.lp
start(0).
limit(6).
n(14).
strada(0,2,8).
strada(0,4,2).
strada(0,5,6).
strada(0,9,2).
strada(0,11,1).
strada(1,0,8).
strada(1,2,3).
strada(1,7,9).
strada(1,11,1).
strada(1,12,12).
strada(1,13,0).
strada(2,0,13).
strada(2,4,13).
strada(2,5,18).
strada(2,6,8).
strada(2,7,11).
strada(2,9,4).
strada(2,10,5).
strada(2,11,9).
strada(2,12,19).
strada(2,13,6).
strada(3,2,6).
strada(3,5,4).
strada(3,11,4).
strada(3,12,11).
strada(3,13,9).
strada(4,0,11).
strada(4,5,5).
strada(4,6,13).
strada(4,7,17).
strada(4,10,4).
strada(4,11,12).
strada(4,13,6).
strada(5,6,2).
strada(5,7,13).
strada(5,8,14).
strada(5,10,20).
strada(5,12,8).
strada(6,0,10).
strada(6,1,11).
strada(6,3,2).
strada(6,8,8).
strada(6,11,14).
strada(7,1,5).
strada(7,3,1).
strada(8,0,2).
strada(8,1,10).
strada(8,3,0).
strada(8,4,1).
strada(8,9,17).
strada(8,12,18).
strada(9,0,2).
strada(9,1,6).
strada(9,2,1).
strada(9,3,4).
strada(9,12,13).
strada(10,4,17).
strada(10,5,16).
strada(10,6,14).
strada(10,11,1).
strada(11,4,9).
strada(11,6,3).
strada(11,9,12).
strada(11,13,20).
strada(12,1,6).
strada(12,3,9).
strada(12,5,20).
strada(12,6,8).
strada(12,11,4).
strada(12,13,4).
strada(13,0,17).
strada(13,1,13).
strada(13,3,6).
strada(13,4,10).
strada(13,6,10).
strada(13,8,10).
strada(13,11,5).
strada(13,12,1).
