Bruniera/ragionamento automatico/progetto/benchmark/minizinc/mid14.dzn
start = 1;
limit = 6;
n = 14;
m=[|-1,-1,8,-1,2,6,-1,-1,-1,2,-1,1,-1,-1,
|8,-1,3,-1,-1,-1,-1,9,-1,-1,-1,1,12,0,
|13,-1,-1,-1,13,18,8,11,-1,4,5,9,19,6,
|-1,-1,6,-1,-1,4,-1,-1,-1,-1,-1,4,11,9,
|11,-1,-1,-1,-1,5,13,17,-1,-1,4,12,-1,6,
|-1,-1,-1,-1,-1,-1,2,13,14,-1,20,-1,8,-1,
|10,11,-1,2,-1,-1,-1,-1,8,-1,-1,14,-1,-1,
|-1,5,-1,1,-1,-1,-1,-1,-1,-1,-1,-1,-1,-1,
|2,10,-1,0,1,-1,-1,-1,-1,17,-1,-1,18,-1,
|2,6,1,4,-1,-1,-1,-1,-1,-1,-1,-1,13,-1,
|-1,-1,-1,-1,17,16,14,-1,-1,-1,-1,1,-1,-1,
|-1,-1,-1,-1,9,-1,3,-1,-1,12,-1,-1,-1,20,
|-1,6,-1,9,-1,20,8,-1,-1,-1,-1,4,-1,4,
|17,13,-1,6,10,-1,10,-1,10,-1,-1,5,1,-1,
|]
;